NAME : ClusterId_1031 
COMMENT : (Gillet and Johnson) 
TYPE : CVRP 
DIMENSION : 23 
EDGE_WEIGHT_TYPE : EUC_2D 
CAPACITY : 500 
NODE_COORD_SECTION 
1031 8302 6500 
262 8008 6320 
742 8060 7658 
560 8176 7747 
406 8326 6040 
713 8409 6114 
888 8343 6373 
905 8282 6995 
439 8363 6531 
79 8406 6451 
227 8403 6490 
449 8522 6230 
344 8481 7571 
435 8438 7106 
631 8492 6615 
963 8728 6722 
178 8954 6343 
76 8935 7361 
572 9255 6405 
421 9593 6220 
616 9738 6250 
613 9386 6599 
852 9498 7043 
DEMAND_SECTION 
1031 905
262 36
742 25
560 40
406 25
713 37
888 52
905 53
439 28
79 42
227 53
449 55
344 43
435 30
631 33
963 48
178 32
76 54
572 40
421 46
616 32
613 52
852 49
DEPOT_SECTION 
1031
 -1
EOF